p cnf 10 10
-4 1 2 3 4 5 6 7 8 9 10 0
 8 5 0
 2 3 5 0
-10 -8 -4 -5 -1 -6 -2 -9 1 2 3 4 5 6 7 8 9 10 0
-5 -3 -6 -2 -4 2 3 4 5 6 0
-8 8 2 6 7 0
-8 -6 -5 -3 -4 3 4 5 6 7 8 9 10 0
-2 -3 -9 -4 -10 -6 -8 1 2 3 4 6 8 9 10 0
